p cnf 17 22
-1 15 0 
-2 9 16 0 
-1 16 0 
-2 9 15 0 
-3 -4 15 0 
-3 -4 16 0 
-5 8 16 0 
-4 16 0 
-6 -5 8 15 0 
-4 15 0 
-6 15 0 
-6 16 0 
-7 16 0 
-8 5 -9 2 17 0 
-10 -6 16 0 
-11 -1 15 0 
-4 -10 15 0 
-4 -6 16 0 
-12 -1 16 0 
-13 -4 15 0 
-11 -6 15 0 
-14 -2 9 16 0 
